p wcnf 245 1216 375
26 1 0
113 2 0
127 3 0
104 4 0
4 5 0
375 -1 -14 15 0
375 -1 -15 16 0
375 -1 -16 17 0
375 -1 -17 18 0
375 -1 -18 19 0
375 -1 -19 20 0
375 -1 -20 21 0
375 -1 -21 22 0
375 -1 -22 23 0
375 -1 -23 24 0
375 -1 -24 25 0
375 -1 -25 26 0
375 -1 -26 27 0
375 -1 -27 28 0
375 -1 -28 29 0
375 -1 -29 30 0
375 -1 -30 31 0
375 -1 -31 32 0
375 -1 -32 33 0
375 -1 -34 35 0
375 -1 -35 36 0
375 -1 -36 37 0
375 -1 -37 38 0
375 -1 -38 39 0
375 -1 -39 40 0
375 -1 -40 41 0
375 -1 -41 42 0
375 -1 -42 43 0
375 -1 -43 44 0
375 -1 -44 45 0
375 -1 -45 46 0
375 -1 -46 47 0
375 -1 -47 48 0
375 -1 -48 49 0
375 -1 -49 50 0
375 -1 -50 51 0
375 -1 -51 52 0
375 -1 -52 53 0
375 -2 -62 63 0
375 -2 -63 64 0
375 -2 -64 65 0
375 -2 -65 66 0
375 -2 -66 67 0
375 -2 -67 68 0
375 -2 -68 69 0
375 -2 -69 70 0
375 -2 -70 71 0
375 -2 -71 72 0
375 -2 -72 73 0
375 -2 -73 74 0
375 -2 -74 75 0
375 -2 -75 76 0
375 -2 -76 77 0
375 -2 -77 78 0
375 -2 -78 79 0
375 -2 -79 80 0
375 -2 -80 81 0
375 -2 -82 83 0
375 -2 -83 84 0
375 -2 -84 85 0
375 -2 -85 86 0
375 -2 -86 87 0
375 -2 -87 88 0
375 -2 -88 89 0
375 -2 -89 90 0
375 -2 -90 91 0
375 -2 -91 92 0
375 -2 -92 93 0
375 -2 -93 94 0
375 -2 -94 95 0
375 -2 -95 96 0
375 -2 -96 97 0
375 -2 -97 98 0
375 -2 -98 99 0
375 -2 -99 100 0
375 -2 -100 101 0
375 -3 -110 111 0
375 -3 -111 112 0
375 -3 -112 113 0
375 -3 -113 114 0
375 -3 -114 115 0
375 -3 -115 116 0
375 -3 -116 117 0
375 -3 -117 118 0
375 -3 -118 119 0
375 -3 -119 120 0
375 -3 -120 121 0
375 -3 -121 122 0
375 -3 -122 123 0
375 -3 -123 124 0
375 -3 -124 125 0
375 -3 -125 126 0
375 -3 -126 127 0
375 -3 -127 128 0
375 -3 -128 129 0
375 -3 -130 131 0
375 -3 -131 132 0
375 -3 -132 133 0
375 -3 -133 134 0
375 -3 -134 135 0
375 -3 -135 136 0
375 -3 -136 137 0
375 -3 -137 138 0
375 -3 -138 139 0
375 -3 -139 140 0
375 -3 -140 141 0
375 -3 -141 142 0
375 -3 -142 143 0
375 -3 -143 144 0
375 -3 -144 145 0
375 -3 -145 146 0
375 -3 -146 147 0
375 -3 -147 148 0
375 -3 -148 149 0
375 -4 -158 159 0
375 -4 -159 160 0
375 -4 -160 161 0
375 -4 -161 162 0
375 -4 -162 163 0
375 -4 -163 164 0
375 -4 -164 165 0
375 -4 -165 166 0
375 -4 -166 167 0
375 -4 -167 168 0
375 -4 -168 169 0
375 -4 -169 170 0
375 -4 -170 171 0
375 -4 -171 172 0
375 -4 -172 173 0
375 -4 -173 174 0
375 -4 -174 175 0
375 -4 -175 176 0
375 -4 -176 177 0
375 -4 -178 179 0
375 -4 -179 180 0
375 -4 -180 181 0
375 -4 -181 182 0
375 -4 -182 183 0
375 -4 -183 184 0
375 -4 -184 185 0
375 -4 -185 186 0
375 -4 -186 187 0
375 -4 -187 188 0
375 -4 -188 189 0
375 -4 -189 190 0
375 -4 -190 191 0
375 -4 -191 192 0
375 -4 -192 193 0
375 -4 -193 194 0
375 -4 -194 195 0
375 -4 -195 196 0
375 -4 -196 197 0
375 -5 -206 207 0
375 -5 -207 208 0
375 -5 -208 209 0
375 -5 -209 210 0
375 -5 -210 211 0
375 -5 -211 212 0
375 -5 -212 213 0
375 -5 -213 214 0
375 -5 -214 215 0
375 -5 -215 216 0
375 -5 -216 217 0
375 -5 -217 218 0
375 -5 -218 219 0
375 -5 -219 220 0
375 -5 -220 221 0
375 -5 -221 222 0
375 -5 -222 223 0
375 -5 -223 224 0
375 -5 -224 225 0
375 -5 -226 227 0
375 -5 -227 228 0
375 -5 -228 229 0
375 -5 -229 230 0
375 -5 -230 231 0
375 -5 -231 232 0
375 -5 -232 233 0
375 -5 -233 234 0
375 -5 -234 235 0
375 -5 -235 236 0
375 -5 -236 237 0
375 -5 -237 238 0
375 -5 -238 239 0
375 -5 -239 240 0
375 -5 -240 241 0
375 -5 -241 242 0
375 -5 -242 243 0
375 -5 -243 244 0
375 -5 -244 245 0
375 -1 -2 6 54 7 55 0
375 -1 -2 -6 -62 0
375 -1 -2 -54 -14 0
375 -1 -2 -54 -15 0
375 -1 -2 -54 -16 0
375 -1 -2 -54 -17 0
375 -1 -2 -54 -18 0
375 -1 -2 -54 -19 0
375 -1 -2 -54 -20 0
375 -1 -2 -54 -21 0
375 -1 -2 -54 -22 0
375 -1 -2 -54 -23 0
375 -1 -2 -54 -24 0
375 -1 -2 -54 -25 0
375 -1 -2 -54 -26 0
375 -1 -2 -54 -27 0
375 -1 -2 -54 -28 0
375 -1 -2 -54 -29 0
375 -1 -2 -7 -82 0
375 -1 -2 -7 -83 0
375 -1 -2 -7 -84 0
375 -1 -2 -7 -85 0
375 -1 -2 -7 -86 0
375 -1 -2 -7 -87 0
375 -1 -2 -7 -88 0
375 -1 -2 -7 -89 0
375 -1 -2 -7 -90 0
375 -1 -2 -55 -34 0
375 -1 -2 -55 -35 0
375 -1 -2 -55 -36 0
375 -1 -2 -6 14 -63 0
375 -1 -2 -54 62 -30 0
375 -1 -2 -6 15 -64 0
375 -1 -2 -54 63 -31 0
375 -1 -2 -6 16 -65 0
375 -1 -2 -54 64 -32 0
375 -1 -2 -6 17 -66 0
375 -1 -2 -54 65 -33 0
375 -1 -2 -6 18 -67 0
375 -1 -2 -6 19 -68 0
375 -1 -2 -6 20 -69 0
375 -1 -2 -6 21 -70 0
375 -1 -2 -6 22 -71 0
375 -1 -2 -6 23 -72 0
375 -1 -2 -6 24 -73 0
375 -1 -2 -6 25 -74 0
375 -1 -2 -6 26 -75 0
375 -1 -2 -6 27 -76 0
375 -1 -2 -6 28 -77 0
375 -1 -2 -6 29 -78 0
375 -1 -2 -6 30 -79 0
375 -1 -2 -6 31 -80 0
375 -1 -2 -6 32 -81 0
375 -1 -2 -7 34 -91 0
375 -1 -2 -55 82 -37 0
375 -1 -2 -7 35 -92 0
375 -1 -2 -55 83 -38 0
375 -1 -2 -7 36 -93 0
375 -1 -2 -55 84 -39 0
375 -1 -2 -7 37 -94 0
375 -1 -2 -55 85 -40 0
375 -1 -2 -7 38 -95 0
375 -1 -2 -55 86 -41 0
375 -1 -2 -7 39 -96 0
375 -1 -2 -55 87 -42 0
375 -1 -2 -7 40 -97 0
375 -1 -2 -55 88 -43 0
375 -1 -2 -7 41 -98 0
375 -1 -2 -55 89 -44 0
375 -1 -2 -7 42 -99 0
375 -1 -2 -55 90 -45 0
375 -1 -2 -7 43 -100 0
375 -1 -2 -55 91 -46 0
375 -1 -2 -7 44 -101 0
375 -1 -2 -55 92 -47 0
375 -1 -3 8 102 9 103 0
375 -1 -3 -8 -110 0
375 -1 -3 -102 -14 0
375 -1 -3 -102 -15 0
375 -1 -3 -102 -16 0
375 -1 -3 -102 -17 0
375 -1 -3 -102 -18 0
375 -1 -3 -102 -19 0
375 -1 -3 -102 -20 0
375 -1 -3 -102 -21 0
375 -1 -3 -102 -22 0
375 -1 -3 -102 -23 0
375 -1 -3 -102 -24 0
375 -1 -3 -102 -25 0
375 -1 -3 -102 -26 0
375 -1 -3 -102 -27 0
375 -1 -3 -102 -28 0
375 -1 -3 -102 -29 0
375 -1 -3 -102 -30 0
375 -1 -3 -102 -31 0
375 -1 -3 -9 -130 0
375 -1 -3 -9 -131 0
375 -1 -3 -9 -132 0
375 -1 -3 -9 -133 0
375 -1 -3 -9 -134 0
375 -1 -3 -9 -135 0
375 -1 -3 -9 -136 0
375 -1 -3 -9 -137 0
375 -1 -3 -9 -138 0
375 -1 -3 -103 -34 0
375 -1 -3 -103 -35 0
375 -1 -3 -103 -36 0
375 -1 -3 -8 14 -111 0
375 -1 -3 -102 110 -32 0
375 -1 -3 -8 15 -112 0
375 -1 -3 -102 111 -33 0
375 -1 -3 -8 16 -113 0
375 -1 -3 -8 17 -114 0
375 -1 -3 -8 18 -115 0
375 -1 -3 -8 19 -116 0
375 -1 -3 -8 20 -117 0
375 -1 -3 -8 21 -118 0
375 -1 -3 -8 22 -119 0
375 -1 -3 -8 23 -120 0
375 -1 -3 -8 24 -121 0
375 -1 -3 -8 25 -122 0
375 -1 -3 -8 26 -123 0
375 -1 -3 -8 27 -124 0
375 -1 -3 -8 28 -125 0
375 -1 -3 -8 29 -126 0
375 -1 -3 -8 30 -127 0
375 -1 -3 -8 31 -128 0
375 -1 -3 -8 32 -129 0
375 -1 -3 -9 34 -139 0
375 -1 -3 -103 130 -37 0
375 -1 -3 -9 35 -140 0
375 -1 -3 -103 131 -38 0
375 -1 -3 -9 36 -141 0
375 -1 -3 -103 132 -39 0
375 -1 -3 -9 37 -142 0
375 -1 -3 -103 133 -40 0
375 -1 -3 -9 38 -143 0
375 -1 -3 -103 134 -41 0
375 -1 -3 -9 39 -144 0
375 -1 -3 -103 135 -42 0
375 -1 -3 -9 40 -145 0
375 -1 -3 -103 136 -43 0
375 -1 -3 -9 41 -146 0
375 -1 -3 -103 137 -44 0
375 -1 -3 -9 42 -147 0
375 -1 -3 -103 138 -45 0
375 -1 -3 -9 43 -148 0
375 -1 -3 -103 139 -46 0
375 -1 -3 -9 44 -149 0
375 -1 -3 -103 140 -47 0
375 -1 -4 11 151 0
375 -1 -4 -11 -178 0
375 -1 -4 -11 -179 0
375 -1 -4 -11 -180 0
375 -1 -4 -11 -181 0
375 -1 -4 -11 -182 0
375 -1 -4 -11 -183 0
375 -1 -4 -11 -184 0
375 -1 -4 -11 -185 0
375 -1 -4 -11 -186 0
375 -1 -4 -151 -34 0
375 -1 -4 -151 -35 0
375 -1 -4 -11 34 -187 0
375 -1 -4 -151 178 -36 0
375 -1 -4 -11 35 -188 0
375 -1 -4 -151 179 -37 0
375 -1 -4 -11 36 -189 0
375 -1 -4 -151 180 -38 0
375 -1 -4 -11 37 -190 0
375 -1 -4 -151 181 -39 0
375 -1 -4 -11 38 -191 0
375 -1 -4 -151 182 -40 0
375 -1 -4 -11 39 -192 0
375 -1 -4 -151 183 -41 0
375 -1 -4 -11 40 -193 0
375 -1 -4 -151 184 -42 0
375 -1 -4 -11 41 -194 0
375 -1 -4 -151 185 -43 0
375 -1 -4 -11 42 -195 0
375 -1 -4 -151 186 -44 0
375 -1 -4 -11 43 -196 0
375 -1 -4 -151 187 -45 0
375 -1 -4 -11 44 -197 0
375 -1 -4 -151 188 -46 0
375 -1 -4 10 150 11 151 0
375 -1 -4 -10 -158 0
375 -1 -4 -150 -14 0
375 -1 -4 -150 -15 0
375 -1 -4 -150 -16 0
375 -1 -4 -150 -17 0
375 -1 -4 -150 -18 0
375 -1 -4 -150 -19 0
375 -1 -4 -150 -20 0
375 -1 -4 -150 -21 0
375 -1 -4 -150 -22 0
375 -1 -4 -150 -23 0
375 -1 -4 -150 -24 0
375 -1 -4 -150 -25 0
375 -1 -4 -150 -26 0
375 -1 -4 -150 -27 0
375 -1 -4 -150 -28 0
375 -1 -4 -150 -29 0
375 -1 -4 -150 -30 0
375 -1 -4 -150 -31 0
375 -1 -4 -150 -32 0
375 -1 -4 -150 -33 0
375 -1 -4 -11 -178 0
375 -1 -4 -11 -179 0
375 -1 -4 -11 -180 0
375 -1 -4 -11 -181 0
375 -1 -4 -11 -182 0
375 -1 -4 -11 -183 0
375 -1 -4 -11 -184 0
375 -1 -4 -11 -185 0
375 -1 -4 -11 -186 0
375 -1 -4 -151 -34 0
375 -1 -4 -151 -35 0
375 -1 -4 -10 14 -159 0
375 -1 -4 -10 15 -160 0
375 -1 -4 -10 16 -161 0
375 -1 -4 -10 17 -162 0
375 -1 -4 -10 18 -163 0
375 -1 -4 -10 19 -164 0
375 -1 -4 -10 20 -165 0
375 -1 -4 -10 21 -166 0
375 -1 -4 -10 22 -167 0
375 -1 -4 -10 23 -168 0
375 -1 -4 -10 24 -169 0
375 -1 -4 -10 25 -170 0
375 -1 -4 -10 26 -171 0
375 -1 -4 -10 27 -172 0
375 -1 -4 -10 28 -173 0
375 -1 -4 -10 29 -174 0
375 -1 -4 -10 30 -175 0
375 -1 -4 -10 31 -176 0
375 -1 -4 -10 32 -177 0
375 -1 -4 -11 34 -187 0
375 -1 -4 -151 178 -36 0
375 -1 -4 -11 35 -188 0
375 -1 -4 -151 179 -37 0
375 -1 -4 -11 36 -189 0
375 -1 -4 -151 180 -38 0
375 -1 -4 -11 37 -190 0
375 -1 -4 -151 181 -39 0
375 -1 -4 -11 38 -191 0
375 -1 -4 -151 182 -40 0
375 -1 -4 -11 39 -192 0
375 -1 -4 -151 183 -41 0
375 -1 -4 -11 40 -193 0
375 -1 -4 -151 184 -42 0
375 -1 -4 -11 41 -194 0
375 -1 -4 -151 185 -43 0
375 -1 -4 -11 42 -195 0
375 -1 -4 -151 186 -44 0
375 -1 -4 -11 43 -196 0
375 -1 -4 -151 187 -45 0
375 -1 -4 -11 44 -197 0
375 -1 -4 -151 188 -46 0
375 -1 -5 12 198 13 199 0
375 -1 -5 -12 -206 0
375 -1 -5 -198 -14 0
375 -1 -5 -198 -15 0
375 -1 -5 -198 -16 0
375 -1 -5 -13 -226 0
375 -1 -5 -13 -227 0
375 -1 -5 -13 -228 0
375 -1 -5 -13 -229 0
375 -1 -5 -13 -230 0
375 -1 -5 -13 -231 0
375 -1 -5 -13 -232 0
375 -1 -5 -13 -233 0
375 -1 -5 -13 -234 0
375 -1 -5 -199 -34 0
375 -1 -5 -12 14 -207 0
375 -1 -5 -198 206 -17 0
375 -1 -5 -12 15 -208 0
375 -1 -5 -198 207 -18 0
375 -1 -5 -12 16 -209 0
375 -1 -5 -198 208 -19 0
375 -1 -5 -12 17 -210 0
375 -1 -5 -198 209 -20 0
375 -1 -5 -12 18 -211 0
375 -1 -5 -198 210 -21 0
375 -1 -5 -12 19 -212 0
375 -1 -5 -198 211 -22 0
375 -1 -5 -12 20 -213 0
375 -1 -5 -198 212 -23 0
375 -1 -5 -12 21 -214 0
375 -1 -5 -198 213 -24 0
375 -1 -5 -12 22 -215 0
375 -1 -5 -198 214 -25 0
375 -1 -5 -12 23 -216 0
375 -1 -5 -198 215 -26 0
375 -1 -5 -12 24 -217 0
375 -1 -5 -198 216 -27 0
375 -1 -5 -12 25 -218 0
375 -1 -5 -198 217 -28 0
375 -1 -5 -12 26 -219 0
375 -1 -5 -198 218 -29 0
375 -1 -5 -12 27 -220 0
375 -1 -5 -198 219 -30 0
375 -1 -5 -12 28 -221 0
375 -1 -5 -198 220 -31 0
375 -1 -5 -12 29 -222 0
375 -1 -5 -198 221 -32 0
375 -1 -5 -12 30 -223 0
375 -1 -5 -198 222 -33 0
375 -1 -5 -12 31 -224 0
375 -1 -5 -12 32 -225 0
375 -1 -5 -13 34 -235 0
375 -1 -5 -199 226 -35 0
375 -1 -5 -13 35 -236 0
375 -1 -5 -199 227 -36 0
375 -1 -5 -13 36 -237 0
375 -1 -5 -199 228 -37 0
375 -1 -5 -13 37 -238 0
375 -1 -5 -199 229 -38 0
375 -1 -5 -13 38 -239 0
375 -1 -5 -199 230 -39 0
375 -1 -5 -13 39 -240 0
375 -1 -5 -199 231 -40 0
375 -1 -5 -13 40 -241 0
375 -1 -5 -199 232 -41 0
375 -1 -5 -13 41 -242 0
375 -1 -5 -199 233 -42 0
375 -1 -5 -13 42 -243 0
375 -1 -5 -199 234 -43 0
375 -1 -5 -13 43 -244 0
375 -1 -5 -199 235 -44 0
375 -1 -5 -13 44 -245 0
375 -1 -5 -199 236 -45 0
375 -2 -3 57 105 0
375 -2 -3 -57 -130 0
375 -2 -3 -57 -131 0
375 -2 -3 -57 -132 0
375 -2 -3 -105 -82 0
375 -2 -3 -105 -83 0
375 -2 -3 -105 -84 0
375 -2 -3 -57 82 -133 0
375 -2 -3 -105 130 -85 0
375 -2 -3 -57 83 -134 0
375 -2 -3 -105 131 -86 0
375 -2 -3 -57 84 -135 0
375 -2 -3 -105 132 -87 0
375 -2 -3 -57 85 -136 0
375 -2 -3 -105 133 -88 0
375 -2 -3 -57 86 -137 0
375 -2 -3 -105 134 -89 0
375 -2 -3 -57 87 -138 0
375 -2 -3 -105 135 -90 0
375 -2 -3 -57 88 -139 0
375 -2 -3 -105 136 -91 0
375 -2 -3 -57 89 -140 0
375 -2 -3 -105 137 -92 0
375 -2 -3 -57 90 -141 0
375 -2 -3 -105 138 -93 0
375 -2 -3 -57 91 -142 0
375 -2 -3 -105 139 -94 0
375 -2 -3 -57 92 -143 0
375 -2 -3 -105 140 -95 0
375 -2 -3 -57 93 -144 0
375 -2 -3 -105 141 -96 0
375 -2 -3 -57 94 -145 0
375 -2 -3 -105 142 -97 0
375 -2 -3 -57 95 -146 0
375 -2 -3 -105 143 -98 0
375 -2 -3 -57 96 -147 0
375 -2 -3 -105 144 -99 0
375 -2 -3 -57 97 -148 0
375 -2 -3 -105 145 -100 0
375 -2 -3 -57 98 -149 0
375 -2 -3 -105 146 -101 0
375 -2 -3 56 104 57 105 0
375 -2 -3 -56 -110 0
375 -2 -3 -56 -111 0
375 -2 -3 -56 -112 0
375 -2 -3 -56 -113 0
375 -2 -3 -56 -114 0
375 -2 -3 -56 -115 0
375 -2 -3 -56 -116 0
375 -2 -3 -56 -117 0
375 -2 -3 -56 -118 0
375 -2 -3 -56 -119 0
375 -2 -3 -56 -120 0
375 -2 -3 -56 -121 0
375 -2 -3 -56 -122 0
375 -2 -3 -56 -123 0
375 -2 -3 -56 -124 0
375 -2 -3 -56 -125 0
375 -2 -3 -104 -62 0
375 -2 -3 -104 -63 0
375 -2 -3 -104 -64 0
375 -2 -3 -104 -65 0
375 -2 -3 -104 -66 0
375 -2 -3 -104 -67 0
375 -2 -3 -104 -68 0
375 -2 -3 -104 -69 0
375 -2 -3 -104 -70 0
375 -2 -3 -104 -71 0
375 -2 -3 -104 -72 0
375 -2 -3 -104 -73 0
375 -2 -3 -104 -74 0
375 -2 -3 -104 -75 0
375 -2 -3 -104 -76 0
375 -2 -3 -104 -77 0
375 -2 -3 -104 -78 0
375 -2 -3 -104 -79 0
375 -2 -3 -57 -130 0
375 -2 -3 -57 -131 0
375 -2 -3 -57 -132 0
375 -2 -3 -105 -82 0
375 -2 -3 -105 -83 0
375 -2 -3 -105 -84 0
375 -2 -3 -56 62 -126 0
375 -2 -3 -104 110 -80 0
375 -2 -3 -56 63 -127 0
375 -2 -3 -104 111 -81 0
375 -2 -3 -56 64 -128 0
375 -2 -3 -56 65 -129 0
375 -2 -3 -57 82 -133 0
375 -2 -3 -105 130 -85 0
375 -2 -3 -57 83 -134 0
375 -2 -3 -105 131 -86 0
375 -2 -3 -57 84 -135 0
375 -2 -3 -105 132 -87 0
375 -2 -3 -57 85 -136 0
375 -2 -3 -105 133 -88 0
375 -2 -3 -57 86 -137 0
375 -2 -3 -105 134 -89 0
375 -2 -3 -57 87 -138 0
375 -2 -3 -105 135 -90 0
375 -2 -3 -57 88 -139 0
375 -2 -3 -105 136 -91 0
375 -2 -3 -57 89 -140 0
375 -2 -3 -105 137 -92 0
375 -2 -3 -57 90 -141 0
375 -2 -3 -105 138 -93 0
375 -2 -3 -57 91 -142 0
375 -2 -3 -105 139 -94 0
375 -2 -3 -57 92 -143 0
375 -2 -3 -105 140 -95 0
375 -2 -3 -57 93 -144 0
375 -2 -3 -105 141 -96 0
375 -2 -3 -57 94 -145 0
375 -2 -3 -105 142 -97 0
375 -2 -3 -57 95 -146 0
375 -2 -3 -105 143 -98 0
375 -2 -3 -57 96 -147 0
375 -2 -3 -105 144 -99 0
375 -2 -3 -57 97 -148 0
375 -2 -3 -105 145 -100 0
375 -2 -3 -57 98 -149 0
375 -2 -3 -105 146 -101 0
375 -2 -4 59 153 0
375 -2 -4 -59 -178 0
375 -2 -4 -59 -179 0
375 -2 -4 -59 -180 0
375 -2 -4 -153 -82 0
375 -2 -4 -153 -83 0
375 -2 -4 -59 82 -181 0
375 -2 -4 -153 178 -84 0
375 -2 -4 -59 83 -182 0
375 -2 -4 -153 179 -85 0
375 -2 -4 -59 84 -183 0
375 -2 -4 -153 180 -86 0
375 -2 -4 -59 85 -184 0
375 -2 -4 -153 181 -87 0
375 -2 -4 -59 86 -185 0
375 -2 -4 -153 182 -88 0
375 -2 -4 -59 87 -186 0
375 -2 -4 -153 183 -89 0
375 -2 -4 -59 88 -187 0
375 -2 -4 -153 184 -90 0
375 -2 -4 -59 89 -188 0
375 -2 -4 -153 185 -91 0
375 -2 -4 -59 90 -189 0
375 -2 -4 -153 186 -92 0
375 -2 -4 -59 91 -190 0
375 -2 -4 -153 187 -93 0
375 -2 -4 -59 92 -191 0
375 -2 -4 -153 188 -94 0
375 -2 -4 -59 93 -192 0
375 -2 -4 -153 189 -95 0
375 -2 -4 -59 94 -193 0
375 -2 -4 -153 190 -96 0
375 -2 -4 -59 95 -194 0
375 -2 -4 -153 191 -97 0
375 -2 -4 -59 96 -195 0
375 -2 -4 -153 192 -98 0
375 -2 -4 -59 97 -196 0
375 -2 -4 -153 193 -99 0
375 -2 -4 -59 98 -197 0
375 -2 -4 -153 194 -100 0
375 -2 -4 58 152 59 153 0
375 -2 -4 -58 -158 0
375 -2 -4 -58 -159 0
375 -2 -4 -58 -160 0
375 -2 -4 -58 -161 0
375 -2 -4 -58 -162 0
375 -2 -4 -58 -163 0
375 -2 -4 -58 -164 0
375 -2 -4 -58 -165 0
375 -2 -4 -58 -166 0
375 -2 -4 -58 -167 0
375 -2 -4 -58 -168 0
375 -2 -4 -58 -169 0
375 -2 -4 -58 -170 0
375 -2 -4 -58 -171 0
375 -2 -4 -58 -172 0
375 -2 -4 -58 -173 0
375 -2 -4 -152 -62 0
375 -2 -4 -152 -63 0
375 -2 -4 -152 -64 0
375 -2 -4 -152 -65 0
375 -2 -4 -152 -66 0
375 -2 -4 -152 -67 0
375 -2 -4 -152 -68 0
375 -2 -4 -152 -69 0
375 -2 -4 -152 -70 0
375 -2 -4 -152 -71 0
375 -2 -4 -152 -72 0
375 -2 -4 -152 -73 0
375 -2 -4 -152 -74 0
375 -2 -4 -152 -75 0
375 -2 -4 -152 -76 0
375 -2 -4 -152 -77 0
375 -2 -4 -152 -78 0
375 -2 -4 -152 -79 0
375 -2 -4 -152 -80 0
375 -2 -4 -152 -81 0
375 -2 -4 -59 -178 0
375 -2 -4 -59 -179 0
375 -2 -4 -59 -180 0
375 -2 -4 -153 -82 0
375 -2 -4 -153 -83 0
375 -2 -4 -58 62 -174 0
375 -2 -4 -58 63 -175 0
375 -2 -4 -58 64 -176 0
375 -2 -4 -58 65 -177 0
375 -2 -4 -59 82 -181 0
375 -2 -4 -153 178 -84 0
375 -2 -4 -59 83 -182 0
375 -2 -4 -153 179 -85 0
375 -2 -4 -59 84 -183 0
375 -2 -4 -153 180 -86 0
375 -2 -4 -59 85 -184 0
375 -2 -4 -153 181 -87 0
375 -2 -4 -59 86 -185 0
375 -2 -4 -153 182 -88 0
375 -2 -4 -59 87 -186 0
375 -2 -4 -153 183 -89 0
375 -2 -4 -59 88 -187 0
375 -2 -4 -153 184 -90 0
375 -2 -4 -59 89 -188 0
375 -2 -4 -153 185 -91 0
375 -2 -4 -59 90 -189 0
375 -2 -4 -153 186 -92 0
375 -2 -4 -59 91 -190 0
375 -2 -4 -153 187 -93 0
375 -2 -4 -59 92 -191 0
375 -2 -4 -153 188 -94 0
375 -2 -4 -59 93 -192 0
375 -2 -4 -153 189 -95 0
375 -2 -4 -59 94 -193 0
375 -2 -4 -153 190 -96 0
375 -2 -4 -59 95 -194 0
375 -2 -4 -153 191 -97 0
375 -2 -4 -59 96 -195 0
375 -2 -4 -153 192 -98 0
375 -2 -4 -59 97 -196 0
375 -2 -4 -153 193 -99 0
375 -2 -4 -59 98 -197 0
375 -2 -4 -153 194 -100 0
375 -2 -5 60 200 61 201 0
375 -2 -5 -60 -206 0
375 -2 -5 -60 -207 0
375 -2 -5 -60 -208 0
375 -2 -5 -60 -209 0
375 -2 -5 -60 -210 0
375 -2 -5 -60 -211 0
375 -2 -5 -60 -212 0
375 -2 -5 -60 -213 0
375 -2 -5 -60 -214 0
375 -2 -5 -60 -215 0
375 -2 -5 -60 -216 0
375 -2 -5 -60 -217 0
375 -2 -5 -60 -218 0
375 -2 -5 -60 -219 0
375 -2 -5 -60 -220 0
375 -2 -5 -60 -221 0
375 -2 -5 -200 -62 0
375 -2 -5 -200 -63 0
375 -2 -5 -200 -64 0
375 -2 -5 -61 -226 0
375 -2 -5 -61 -227 0
375 -2 -5 -61 -228 0
375 -2 -5 -201 -82 0
375 -2 -5 -60 62 -222 0
375 -2 -5 -200 206 -65 0
375 -2 -5 -60 63 -223 0
375 -2 -5 -200 207 -66 0
375 -2 -5 -60 64 -224 0
375 -2 -5 -200 208 -67 0
375 -2 -5 -60 65 -225 0
375 -2 -5 -200 209 -68 0
375 -2 -5 -61 82 -229 0
375 -2 -5 -201 226 -83 0
375 -2 -5 -61 83 -230 0
375 -2 -5 -201 227 -84 0
375 -2 -5 -61 84 -231 0
375 -2 -5 -201 228 -85 0
375 -2 -5 -61 85 -232 0
375 -2 -5 -201 229 -86 0
375 -2 -5 -61 86 -233 0
375 -2 -5 -201 230 -87 0
375 -2 -5 -61 87 -234 0
375 -2 -5 -201 231 -88 0
375 -2 -5 -61 88 -235 0
375 -2 -5 -201 232 -89 0
375 -2 -5 -61 89 -236 0
375 -2 -5 -201 233 -90 0
375 -2 -5 -61 90 -237 0
375 -2 -5 -201 234 -91 0
375 -2 -5 -61 91 -238 0
375 -2 -5 -201 235 -92 0
375 -2 -5 -61 92 -239 0
375 -2 -5 -201 236 -93 0
375 -2 -5 -61 93 -240 0
375 -2 -5 -201 237 -94 0
375 -2 -5 -61 94 -241 0
375 -2 -5 -201 238 -95 0
375 -2 -5 -61 95 -242 0
375 -2 -5 -201 239 -96 0
375 -2 -5 -61 96 -243 0
375 -2 -5 -201 240 -97 0
375 -2 -5 -61 97 -244 0
375 -2 -5 -201 241 -98 0
375 -2 -5 -61 98 -245 0
375 -2 -5 -201 242 -99 0
375 -3 -4 107 155 0
375 -3 -4 -107 -178 0
375 -3 -4 -107 -179 0
375 -3 -4 -107 -180 0
375 -3 -4 -155 -130 0
375 -3 -4 -155 -131 0
375 -3 -4 -107 130 -181 0
375 -3 -4 -155 178 -132 0
375 -3 -4 -107 131 -182 0
375 -3 -4 -155 179 -133 0
375 -3 -4 -107 132 -183 0
375 -3 -4 -155 180 -134 0
375 -3 -4 -107 133 -184 0
375 -3 -4 -155 181 -135 0
375 -3 -4 -107 134 -185 0
375 -3 -4 -155 182 -136 0
375 -3 -4 -107 135 -186 0
375 -3 -4 -155 183 -137 0
375 -3 -4 -107 136 -187 0
375 -3 -4 -155 184 -138 0
375 -3 -4 -107 137 -188 0
375 -3 -4 -155 185 -139 0
375 -3 -4 -107 138 -189 0
375 -3 -4 -155 186 -140 0
375 -3 -4 -107 139 -190 0
375 -3 -4 -155 187 -141 0
375 -3 -4 -107 140 -191 0
375 -3 -4 -155 188 -142 0
375 -3 -4 -107 141 -192 0
375 -3 -4 -155 189 -143 0
375 -3 -4 -107 142 -193 0
375 -3 -4 -155 190 -144 0
375 -3 -4 -107 143 -194 0
375 -3 -4 -155 191 -145 0
375 -3 -4 -107 144 -195 0
375 -3 -4 -155 192 -146 0
375 -3 -4 -107 145 -196 0
375 -3 -4 -155 193 -147 0
375 -3 -4 -107 146 -197 0
375 -3 -4 -155 194 -148 0
375 -3 -4 106 154 107 155 0
375 -3 -4 -106 -158 0
375 -3 -4 -106 -159 0
375 -3 -4 -106 -160 0
375 -3 -4 -106 -161 0
375 -3 -4 -106 -162 0
375 -3 -4 -106 -163 0
375 -3 -4 -106 -164 0
375 -3 -4 -106 -165 0
375 -3 -4 -106 -166 0
375 -3 -4 -106 -167 0
375 -3 -4 -106 -168 0
375 -3 -4 -106 -169 0
375 -3 -4 -106 -170 0
375 -3 -4 -106 -171 0
375 -3 -4 -106 -172 0
375 -3 -4 -106 -173 0
375 -3 -4 -106 -174 0
375 -3 -4 -106 -175 0
375 -3 -4 -154 -110 0
375 -3 -4 -154 -111 0
375 -3 -4 -154 -112 0
375 -3 -4 -154 -113 0
375 -3 -4 -154 -114 0
375 -3 -4 -154 -115 0
375 -3 -4 -154 -116 0
375 -3 -4 -154 -117 0
375 -3 -4 -154 -118 0
375 -3 -4 -154 -119 0
375 -3 -4 -154 -120 0
375 -3 -4 -154 -121 0
375 -3 -4 -154 -122 0
375 -3 -4 -154 -123 0
375 -3 -4 -154 -124 0
375 -3 -4 -154 -125 0
375 -3 -4 -154 -126 0
375 -3 -4 -154 -127 0
375 -3 -4 -154 -128 0
375 -3 -4 -154 -129 0
375 -3 -4 -107 -178 0
375 -3 -4 -107 -179 0
375 -3 -4 -107 -180 0
375 -3 -4 -155 -130 0
375 -3 -4 -155 -131 0
375 -3 -4 -106 110 -176 0
375 -3 -4 -106 111 -177 0
375 -3 -4 -107 130 -181 0
375 -3 -4 -155 178 -132 0
375 -3 -4 -107 131 -182 0
375 -3 -4 -155 179 -133 0
375 -3 -4 -107 132 -183 0
375 -3 -4 -155 180 -134 0
375 -3 -4 -107 133 -184 0
375 -3 -4 -155 181 -135 0
375 -3 -4 -107 134 -185 0
375 -3 -4 -155 182 -136 0
375 -3 -4 -107 135 -186 0
375 -3 -4 -155 183 -137 0
375 -3 -4 -107 136 -187 0
375 -3 -4 -155 184 -138 0
375 -3 -4 -107 137 -188 0
375 -3 -4 -155 185 -139 0
375 -3 -4 -107 138 -189 0
375 -3 -4 -155 186 -140 0
375 -3 -4 -107 139 -190 0
375 -3 -4 -155 187 -141 0
375 -3 -4 -107 140 -191 0
375 -3 -4 -155 188 -142 0
375 -3 -4 -107 141 -192 0
375 -3 -4 -155 189 -143 0
375 -3 -4 -107 142 -193 0
375 -3 -4 -155 190 -144 0
375 -3 -4 -107 143 -194 0
375 -3 -4 -155 191 -145 0
375 -3 -4 -107 144 -195 0
375 -3 -4 -155 192 -146 0
375 -3 -4 -107 145 -196 0
375 -3 -4 -155 193 -147 0
375 -3 -4 -107 146 -197 0
375 -3 -4 -155 194 -148 0
375 -3 -5 109 203 0
375 -3 -5 -109 -226 0
375 -3 -5 -109 -227 0
375 -3 -5 -109 -228 0
375 -3 -5 -203 -130 0
375 -3 -5 -109 130 -229 0
375 -3 -5 -203 226 -131 0
375 -3 -5 -109 131 -230 0
375 -3 -5 -203 227 -132 0
375 -3 -5 -109 132 -231 0
375 -3 -5 -203 228 -133 0
375 -3 -5 -109 133 -232 0
375 -3 -5 -203 229 -134 0
375 -3 -5 -109 134 -233 0
375 -3 -5 -203 230 -135 0
375 -3 -5 -109 135 -234 0
375 -3 -5 -203 231 -136 0
375 -3 -5 -109 136 -235 0
375 -3 -5 -203 232 -137 0
375 -3 -5 -109 137 -236 0
375 -3 -5 -203 233 -138 0
375 -3 -5 -109 138 -237 0
375 -3 -5 -203 234 -139 0
375 -3 -5 -109 139 -238 0
375 -3 -5 -203 235 -140 0
375 -3 -5 -109 140 -239 0
375 -3 -5 -203 236 -141 0
375 -3 -5 -109 141 -240 0
375 -3 -5 -203 237 -142 0
375 -3 -5 -109 142 -241 0
375 -3 -5 -203 238 -143 0
375 -3 -5 -109 143 -242 0
375 -3 -5 -203 239 -144 0
375 -3 -5 -109 144 -243 0
375 -3 -5 -203 240 -145 0
375 -3 -5 -109 145 -244 0
375 -3 -5 -203 241 -146 0
375 -3 -5 -109 146 -245 0
375 -3 -5 -203 242 -147 0
375 -3 -5 108 202 109 203 0
375 -3 -5 -108 -206 0
375 -3 -5 -108 -207 0
375 -3 -5 -108 -208 0
375 -3 -5 -108 -209 0
375 -3 -5 -108 -210 0
375 -3 -5 -108 -211 0
375 -3 -5 -108 -212 0
375 -3 -5 -108 -213 0
375 -3 -5 -108 -214 0
375 -3 -5 -108 -215 0
375 -3 -5 -108 -216 0
375 -3 -5 -108 -217 0
375 -3 -5 -108 -218 0
375 -3 -5 -108 -219 0
375 -3 -5 -108 -220 0
375 -3 -5 -108 -221 0
375 -3 -5 -108 -222 0
375 -3 -5 -108 -223 0
375 -3 -5 -202 -110 0
375 -3 -5 -202 -111 0
375 -3 -5 -202 -112 0
375 -3 -5 -109 -226 0
375 -3 -5 -109 -227 0
375 -3 -5 -109 -228 0
375 -3 -5 -203 -130 0
375 -3 -5 -108 110 -224 0
375 -3 -5 -202 206 -113 0
375 -3 -5 -108 111 -225 0
375 -3 -5 -202 207 -114 0
375 -3 -5 -109 130 -229 0
375 -3 -5 -203 226 -131 0
375 -3 -5 -109 131 -230 0
375 -3 -5 -203 227 -132 0
375 -3 -5 -109 132 -231 0
375 -3 -5 -203 228 -133 0
375 -3 -5 -109 133 -232 0
375 -3 -5 -203 229 -134 0
375 -3 -5 -109 134 -233 0
375 -3 -5 -203 230 -135 0
375 -3 -5 -109 135 -234 0
375 -3 -5 -203 231 -136 0
375 -3 -5 -109 136 -235 0
375 -3 -5 -203 232 -137 0
375 -3 -5 -109 137 -236 0
375 -3 -5 -203 233 -138 0
375 -3 -5 -109 138 -237 0
375 -3 -5 -203 234 -139 0
375 -3 -5 -109 139 -238 0
375 -3 -5 -203 235 -140 0
375 -3 -5 -109 140 -239 0
375 -3 -5 -203 236 -141 0
375 -3 -5 -109 141 -240 0
375 -3 -5 -203 237 -142 0
375 -3 -5 -109 142 -241 0
375 -3 -5 -203 238 -143 0
375 -3 -5 -109 143 -242 0
375 -3 -5 -203 239 -144 0
375 -3 -5 -109 144 -243 0
375 -3 -5 -203 240 -145 0
375 -3 -5 -109 145 -244 0
375 -3 -5 -203 241 -146 0
375 -3 -5 -109 146 -245 0
375 -3 -5 -203 242 -147 0
375 -4 -5 157 205 0
375 -4 -5 -157 -226 0
375 -4 -5 -157 -227 0
375 -4 -5 -205 -178 0
375 -4 -5 -157 178 -228 0
375 -4 -5 -205 226 -179 0
375 -4 -5 -157 179 -229 0
375 -4 -5 -205 227 -180 0
375 -4 -5 -157 180 -230 0
375 -4 -5 -205 228 -181 0
375 -4 -5 -157 181 -231 0
375 -4 -5 -205 229 -182 0
375 -4 -5 -157 182 -232 0
375 -4 -5 -205 230 -183 0
375 -4 -5 -157 183 -233 0
375 -4 -5 -205 231 -184 0
375 -4 -5 -157 184 -234 0
375 -4 -5 -205 232 -185 0
375 -4 -5 -157 185 -235 0
375 -4 -5 -205 233 -186 0
375 -4 -5 -157 186 -236 0
375 -4 -5 -205 234 -187 0
375 -4 -5 -157 187 -237 0
375 -4 -5 -205 235 -188 0
375 -4 -5 -157 188 -238 0
375 -4 -5 -205 236 -189 0
375 -4 -5 -157 189 -239 0
375 -4 -5 -205 237 -190 0
375 -4 -5 -157 190 -240 0
375 -4 -5 -205 238 -191 0
375 -4 -5 -157 191 -241 0
375 -4 -5 -205 239 -192 0
375 -4 -5 -157 192 -242 0
375 -4 -5 -205 240 -193 0
375 -4 -5 -157 193 -243 0
375 -4 -5 -205 241 -194 0
375 -4 -5 -157 194 -244 0
375 -4 -5 -205 242 -195 0
375 -4 -5 -157 195 -245 0
375 -4 -5 -205 243 -196 0
375 -4 -5 204 157 205 0
375 -4 -5 -204 -158 0
375 -4 -5 -204 -159 0
375 -4 -5 -204 -160 0
375 -4 -5 -157 -226 0
375 -4 -5 -157 -227 0
375 -4 -5 -205 -178 0
375 -4 -5 -157 178 -228 0
375 -4 -5 -205 226 -179 0
375 -4 -5 -157 179 -229 0
375 -4 -5 -205 227 -180 0
375 -4 -5 -157 180 -230 0
375 -4 -5 -205 228 -181 0
375 -4 -5 -157 181 -231 0
375 -4 -5 -205 229 -182 0
375 -4 -5 -157 182 -232 0
375 -4 -5 -205 230 -183 0
375 -4 -5 -157 183 -233 0
375 -4 -5 -205 231 -184 0
375 -4 -5 -157 184 -234 0
375 -4 -5 -205 232 -185 0
375 -4 -5 -157 185 -235 0
375 -4 -5 -205 233 -186 0
375 -4 -5 -157 186 -236 0
375 -4 -5 -205 234 -187 0
375 -4 -5 -157 187 -237 0
375 -4 -5 -205 235 -188 0
375 -4 -5 -157 188 -238 0
375 -4 -5 -205 236 -189 0
375 -4 -5 -157 189 -239 0
375 -4 -5 -205 237 -190 0
375 -4 -5 -157 190 -240 0
375 -4 -5 -205 238 -191 0
375 -4 -5 -157 191 -241 0
375 -4 -5 -205 239 -192 0
375 -4 -5 -157 192 -242 0
375 -4 -5 -205 240 -193 0
375 -4 -5 -157 193 -243 0
375 -4 -5 -205 241 -194 0
375 -4 -5 -157 194 -244 0
375 -4 -5 -205 242 -195 0
375 -4 -5 -157 195 -245 0
375 -4 -5 -205 243 -196 0
375 33 -1 0
375 45 -1 0
375 46 -1 0
375 47 -1 0
375 48 -1 0
375 49 -1 0
375 50 -1 0
375 51 -1 0
375 52 -1 0
375 53 -1 0
375 66 -2 0
375 67 -2 0
375 68 -2 0
375 69 -2 0
375 70 -2 0
375 71 -2 0
375 72 -2 0
375 73 -2 0
375 74 -2 0
375 75 -2 0
375 76 -2 0
375 77 -2 0
375 78 -2 0
375 79 -2 0
375 80 -2 0
375 81 -2 0
375 99 -2 0
375 100 -2 0
375 101 -2 0
375 112 -3 0
375 113 -3 0
375 114 -3 0
375 115 -3 0
375 116 -3 0
375 117 -3 0
375 118 -3 0
375 119 -3 0
375 120 -3 0
375 121 -3 0
375 122 -3 0
375 123 -3 0
375 124 -3 0
375 125 -3 0
375 126 -3 0
375 127 -3 0
375 128 -3 0
375 129 -3 0
375 147 -3 0
375 148 -3 0
375 149 -3 0
375 158 -4 0
375 159 -4 0
375 160 -4 0
375 161 -4 0
375 162 -4 0
375 163 -4 0
375 164 -4 0
375 165 -4 0
375 166 -4 0
375 167 -4 0
375 168 -4 0
375 169 -4 0
375 170 -4 0
375 171 -4 0
375 172 -4 0
375 173 -4 0
375 174 -4 0
375 175 -4 0
375 176 -4 0
375 177 -4 0
375 196 -4 0
375 197 -4 0
375 223 -5 0
375 224 -5 0
375 225 -5 0
375 245 -5 0
